
Gurobi 10.0.3 (linux64, gurobi_cl) logging started Thu Nov  9 11:47:19 2023

Set parameter Username
Set parameter TimeLimit to value 3600
Set parameter LogFile to value "RCPSP_1050.log"
Set parameter Threads to value 32
Academic license - for non-commercial use only - expires 2024-11-06
Using license file /home/jrivera6/gurobi-licenses/v1003/compute-0-36/gurobi.lic

Gurobi Optimizer version 10.0.3 build v10.0.3rc0 (linux64)
Copyright (c) 2023, Gurobi Optimization, LLC

Read MPS format model from file RCPSP_1050.mps
Reading time = 0.13 seconds
RCPSP_1050: 42919 rows, 17020 columns, 151024 nonzeros

CPU model: Intel(R) Xeon(R) Gold 6130 CPU @ 2.10GHz, instruction set [SSE2|AVX|AVX2|AVX512]
Thread count: 32 physical cores, 32 logical processors, using up to 32 threads

Optimize a model with 42919 rows, 17020 columns and 151024 nonzeros
Model fingerprint: 0x99af859c
Variable types: 92 continuous, 16928 integer (16928 binary)
Coefficient statistics:
  Matrix range     [1e+00, 5e+02]
  Objective range  [1e+00, 1e+00]
  Bounds range     [1e+00, 1e+00]
  RHS range        [1e+00, 5e+02]
Presolve removed 6780 rows and 1089 columns (presolve time = 5s) ...
Presolve removed 10051 rows and 2616 columns
Presolve time: 5.69s
Presolved: 32868 rows, 14404 columns, 121273 nonzeros
Variable types: 91 continuous, 14313 integer (14313 binary)

Deterministic concurrent LP optimizer: primal and dual simplex (primal and dual model)
Showing first log only...

Root relaxation presolved: 32868 rows, 14404 columns, 121273 nonzeros


Root simplex log...

Iteration    Objective       Primal Inf.    Dual Inf.      Time
       0    7.7008025e+01   4.512985e-03   1.524141e+08      7s
    2512    7.7000000e+01   0.000000e+00   0.000000e+00      7s
Concurrent spin time: 0.36s

Solved with dual simplex (dual model)

Root relaxation: objective 7.700000e+01, 15830 iterations, 1.42 seconds (0.13 work units)
Total elapsed time = 10.12s

    Nodes    |    Current Node    |     Objective Bounds      |     Work
 Expl Unexpl |  Obj  Depth IntInf | Incumbent    BestBd   Gap | It/Node Time

     0     0   77.00000    0  321          -   77.00000      -     -   15s
     0     0   77.00000    0  319          -   77.00000      -     -   15s
     0     0   77.00000    0 1189          -   77.00000      -     -   42s
     0     0   77.00000    0 1172          -   77.00000      -     -   43s
     0     0   77.00000    0 1101          -   77.00000      -     -   45s
     0     0   77.00000    0 1363          -   77.00000      -     -  102s
     0     0   77.00000    0 1308          -   77.00000      -     -  103s
     0     0   77.00000    0 1308          -   77.00000      -     -  103s
     0     0   77.00000    0 1312          -   77.00000      -     -  103s
     0     0   77.00000    0  487          -   77.00000      -     -  136s
     0     0   77.00000    0  486          -   77.00000      -     -  136s
     0     0   77.00000    0  669          -   77.00000      -     -  143s
     0     0   77.00000    0  664          -   77.00000      -     -  143s
     0     0   77.00000    0  643          -   77.00000      -     -  144s
     0     0   77.00000    0  655          -   77.00000      -     -  144s
     0     0   77.00000    0  560          -   77.00000      -     -  163s
     0     0   77.00000    0 1121          -   77.00000      -     -  170s
     0     0   77.00000    0 1048          -   77.00000      -     -  171s
     0     0   77.00000    0  979          -   77.00000      -     -  171s
     0     0   77.00000    0  543          -   77.00000      -     -  196s
     0     0   77.00000    0  906          -   77.00000      -     -  204s
     0     0   77.00000    0  412          -   77.00000      -     -  219s
     0     0   77.00000    0  352          -   77.00000      -     -  227s
     0     2   77.00000    0  331          -   77.00000      -     -  266s
     1     4   77.00000    1  333          -   77.00000      -  4790  273s
     3     8   77.00000    2 1131          -   77.00000      -  2352  298s
     7    14   77.00000    3  822          -   77.00000      -  1730  310s
    15    24   77.00000    4  820          -   77.00000      -  1118  322s
    29    47   77.00000    5 1014          -   77.00000      -   777  356s
    53    76   77.00000    6  890          -   77.00000      -  1174  383s
    85   106   77.00000    7 1225          -   77.00000      -  1104  412s
   117   136   77.00286    8 1115          -   77.00000      -  1174  425s
   149   168   77.00486    9 1143          -   77.00000      -   968  440s
   181   203   78.00000   10 1035          -   77.00000      -   821  489s
   217   235   78.00000   11 1006          -   77.00000      -   826  511s
   252   273   78.00000   12 1005          -   77.00000      -   730  523s
   290   313   78.00000   13 1144          -   77.00000      -   658  546s
   332   348   78.00000   14 1125          -   77.00000      -   589  560s
   381   388   78.00000   15 1097          -   77.00000      -   524  578s
   426   422   78.00000   16 1234          -   77.00000      -   489  605s
   465   462   78.00000   17 1187          -   77.00000      -   502  618s
   510   502   78.00000   18 1151          -   77.00000      -   473  640s
   561   560   78.00000   19 1170          -   77.00000      -   445  663s
   620   614   78.00000   20 1145          -   77.00000      -   411  864s
   679   676   78.00000   21 1046          -   77.00000      -   380  964s
   744   738   78.00000   22 1124          -   77.00000      -   355 1192s
   813   805   78.00000   23 1102          -   77.00000      -   331 1277s
   881   880   78.00000   24 1100          -   77.00000      -   309 1483s
   958   955   78.00000   26 1124          -   77.00000      -   290 1619s
  1039  1047   78.00000   28 1140          -   77.00000      -   273 1721s
  1131  1132   78.00000   29 1140          -   77.00000      -   254 1928s
  1135  1132   80.00000   32  945          -   77.00000      -   254 1931s
  1222  1228   78.00000   31 1121          -   77.00000      -   241 2095s
  1323  1358   78.00000   32 1020          -   77.00000      -   226 2596s
  1453  1483   78.00000   33 1020          -   77.00000      -   210 3103s
  1468  1483   82.00000   81  614          -   77.00000      -   209 3105s
  1580  1702   78.00000   34 1123          -   77.00000      -   199 3601s

Cutting planes:
  Gomory: 20
  Lift-and-project: 1
  Cover: 278
  Implied bound: 273
  Clique: 15
  MIR: 1963
  StrongCG: 30
  Inf proof: 1
  Zero half: 3
  RLT: 1139
  Relax-and-lift: 444
  PSD: 1

Explored 1807 nodes (438313 simplex iterations) in 4076.06 seconds (76.10 work units)
Thread count was 32 (of 32 available processors)

Solution count 0

Time limit reached
Best objective -, best bound 7.700000000000e+01, gap -

Unable to retrieve attribute 'X'

